DIMACS2
80 51 260 167 275 192 318 205 297 256 97 79 40 141 287 85 237 229 132 131 272 266 122 138 66 157 137 28 218 164 23 201 172 300 120 6 43 124 271 185 84 12 58 94 19 305 199 115 123 206 37 170 29 212 255 248 56 54 197 17 111 191 223 73 285 155 98 269 251 150 44 78 130 3 171 314 240 24 241 174 136
p edge 320 320
e 0 256 46.0
e 1 138 15.0
e 2 300 40.0
e 3 142 42.0
e 4 286 1.0
e 5 109 2.0
e 6 54 38.0
e 7 260 39.0
e 8 191 43.0
e 9 70 1.0
e 10 89 1.0
e 11 207 1.0
e 12 43 16.0
e 13 82 2.0
e 14 187 2.0
e 15 214 2.0
e 16 299 2.0
e 17 116 30.0
e 18 150 30.0
e 19 283 43.0
e 20 118 1.0
e 21 277 2.0
e 22 206 6.0
e 23 64 26.0
e 24 315 20.0
e 25 279 1.0
e 26 141 27.0
e 27 233 1.0
e 28 185 28.0
e 29 143 23.0
e 30 218 40.0
e 31 142 3.0
e 32 106 1.0
e 33 52 2.0
e 34 31 1.0
e 35 210 3.0
e 36 272 45.0
e 37 280 30.0
e 38 214 2.0
e 39 59 1.0
e 40 15 4.0
e 41 2 2.0
e 42 109 2.0
e 43 116 10.0
e 44 216 8.0
e 45 274 2.0
e 46 267 1.0
e 47 265 2.0
e 48 298 3.0
e 49 85 25.0
e 50 213 2.0
e 51 187 34.0
e 52 120 35.0
e 53 3 42.0
e 54 172 34.0
e 55 275 5.0
e 56 254 10.0
e 57 65 1.0
e 58 126 1.0
e 59 140 2.0
e 60 313 8.0
e 61 30 11.0
e 62 47 1.0
e 63 74 2.0
e 64 299 8.0
e 65 280 1.0
e 66 188 12.0
e 67 113 1.0
e 68 60 3.0
e 69 219 1.0
e 70 91 2.0
e 71 184 1.0
e 72 307 3.0
e 73 144 36.0
e 74 132 21.0
e 75 65 1.0
e 76 199 1.0
e 77 133 2.0
e 78 265 27.0
e 79 110 34.0
e 80 223 28.0
e 81 151 5.0
e 82 306 1.0
e 83 203 1.0
e 84 201 44.0
e 85 111 36.0
e 86 16 1.0
e 87 131 31.0
e 88 251 3.0
e 89 77 1.0
e 90 198 1.0
e 91 102 2.0
e 92 42 1.0
e 93 314 17.0
e 94 75 19.0
e 95 265 1.0
e 96 143 1.0
e 97 266 16.0
e 98 260 2.0
e 99 309 1.0
e 100 274 1.0
e 101 130 35.0
e 102 275 48.0
e 103 178 2.0
e 104 159 1.0
e 105 146 1.0
e 106 12 18.0
e 107 182 2.0
e 108 92 1.0
e 109 158 1.0
e 110 311 5.0
e 111 72 2.0
e 112 21 1.0
e 113 253 1.0
e 114 274 1.0
e 115 283 40.0
e 116 233 1.0
e 117 242 3.0
e 118 197 4.0
e 119 159 1.0
e 120 122 26.0
e 121 215 1.0
e 122 283 37.0
e 123 224 39.0
e 124 63 15.0
e 125 280 2.0
e 126 161 1.0
e 127 5 1.0
e 128 227 1.0
e 129 124 15.0
e 130 182 15.0
e 131 98 6.0
e 132 143 44.0
e 133 310 1.0
e 134 272 6.0
e 135 165 1.0
e 136 306 36.0
e 137 39 2.0
e 138 28 37.0
e 139 314 26.0
e 140 175 2.0
e 141 154 27.0
e 142 247 4.0
e 143 115 48.0
e 144 50 2.0
e 145 286 1.0
e 146 162 1.0
e 147 258 2.0
e 148 138 21.0
e 149 118 1.0
e 150 180 23.0
e 151 211 10.0
e 152 83 1.0
e 153 231 1.0
e 154 156 2.0
e 155 260 17.0
e 156 4 2.0
e 157 214 39.0
e 158 44 46.0
e 159 168 2.0
e 160 223 46.0
e 161 272 47.0
e 162 71 1.0
e 163 130 11.0
e 164 151 9.0
e 165 12 9.0
e 166 262 2.0
e 167 251 44.0
e 168 154 1.0
e 169 314 24.0
e 170 200 1.0
e 171 51 49.0
e 172 314 45.0
e 173 133 1.0
e 174 59 44.0
e 175 309 1.0
e 176 119 3.0
e 177 212 44.0
e 178 255 1.0
e 179 245 1.0
e 180 48 1.0
e 181 254 1.0
e 182 119 1.0
e 183 222 2.0
e 184 113 1.0
e 185 0 41.0
e 186 84 35.0
e 187 175 2.0
e 188 34 1.0
e 189 276 1.0
e 190 120 30.0
e 191 235 9.0
e 192 272 15.0
e 193 190 2.0
e 194 177 1.0
e 195 258 1.0
e 196 255 29.0
e 197 205 12.0
e 198 213 1.0
e 199 160 39.0
e 200 35 3.0
e 201 44 4.0
e 202 182 1.0
e 203 10 1.0
e 204 287 21.0
e 205 141 24.0
e 206 265 12.0
e 207 156 3.0
e 208 172 21.0
e 209 112 1.0
e 210 251 23.0
e 211 35 1.0
e 212 29 35.0
e 213 181 1.0
e 214 228 1.0
e 215 107 1.0
e 216 36 2.0
e 217 271 27.0
e 218 228 25.0
e 219 207 1.0
e 220 62 1.0
e 221 68 1.0
e 222 115 1.0
e 223 123 44.0
e 224 46 1.0
e 225 203 1.0
e 226 68 1.0
e 227 261 2.0
e 228 222 1.0
e 229 109 35.0
e 230 262 1.0
e 231 244 3.0
e 232 8 2.0
e 233 2 1.0
e 234 56 18.0
e 235 137 19.0
e 236 80 1.0
e 237 202 21.0
e 238 5 2.0
e 239 112 1.0
e 240 262 3.0
e 241 76 48.0
e 242 119 1.0
e 243 312 1.0
e 244 264 12.0
e 245 194 1.0
e 246 53 11.0
e 247 161 3.0
e 248 212 8.0
e 249 217 7.0
e 250 112 1.0
e 251 119 4.0
e 252 304 1.0
e 253 317 1.0
e 254 115 9.0
e 255 124 9.0
e 256 37 34.0
e 257 150 2.0
e 258 68 2.0
e 259 313 9.0
e 260 150 32.0
e 261 293 1.0
e 262 186 2.0
e 263 148 2.0
e 264 237 45.0
e 265 236 1.0
e 266 261 17.0
e 267 287 28.0
e 268 31 1.0
e 269 13 41.0
e 270 267 2.0
e 271 307 40.0
e 272 90 34.0
e 273 37 16.0
e 274 106 1.0
e 275 43 41.0
e 276 89 1.0
e 277 204 1.0
e 278 175 1.0
e 279 311 1.0
e 280 2 2.0
e 281 146 1.0
e 282 241 10.0
e 283 136 31.0
e 284 66 4.0
e 285 91 33.0
e 286 292 5.0
e 287 66 31.0
e 288 174 42.0
e 289 75 3.0
e 290 310 1.0
e 291 263 1.0
e 292 206 24.0
e 293 1 1.0
e 294 245 1.0
e 295 50 1.0
e 296 241 1.0
e 297 241 38.0
e 298 312 2.0
e 299 293 3.0
e 300 47 19.0
e 301 82 1.0
e 302 65 1.0
e 303 64 1.0
e 304 9 1.0
e 305 74 40.0
e 306 40 46.0
e 307 133 1.0
e 308 118 1.0
e 309 12 45.0
e 310 32 1.0
e 311 47 1.0
e 312 124 11.0
e 313 58 24.0
e 314 308 39.0
e 315 263 1.0
e 316 95 1.0
e 317 4 1.0
e 318 93 18.0
e 319 308 1.0
